50
21885

322 230
53 200
476 813
447 364
346 20
321 366
561 629
162 901
912 781
273 386
592 231
994 29
191 649
404 405
450 494
406 618
544 796
154 557
327 970
406 574
271 992
997 373
57 470
576 892
33 455
649 303
57 721
114 613
510 686
965 988
30 394
848 744
51 564
565 914
932 432
433 933
818 737
290 6
273 663
579 393
971 441
462 465
938 771
800 629
591 3
162 39
975 868
839 153
179 636
768 464
